NAME : ClusterId_1017 
COMMENT : (Gillet and Johnson) 
TYPE : CVRP 
DIMENSION : 22 
EDGE_WEIGHT_TYPE : EUC_2D 
CAPACITY : 500 
NODE_COORD_SECTION 
1017 921 7401 
337 22 6732 
712 448 7223 
133 433 7143 
481 292 6893 
294 654 7329 
946 1076 7726 
824 321 6867 
437 1196 7764 
191 757 7303 
162 448 6720 
973 1416 7644 
874 1465 7365 
999 1460 7285 
197 1236 6765 
673 1356 6880 
549 1239 6690 
672 1368 6730 
184 1332 6623 
219 2131 7310 
86 1878 7090 
124 2005 7022 
DEMAND_SECTION 
1017 843
337 35
712 28
133 42
481 31
294 43
946 25
824 32
437 37
191 56
162 36
973 53
874 54
999 33
197 49
673 32
549 33
672 30
184 31
219 45
86 43
124 40
DEPOT_SECTION 
1017
 -1
EOF